c File: flat175_3_0.col
c
c SOURCE: Joseph Culberson (joe@cs.ualberta.ca)
c DESCRIPTION: Quasi-random coloring problem
c              generated with flatness = 0
c                             probability = 0.041
c                             known coloring = 3
c                             random seed = 1062
c              Creation Date:  Wed Feb 24 10:55:20 1999
c Maximum degree = 8 Minimum degree = 0
c COLOR VERIFICATION: Using the permuted order
c under simple greedy yields the specified
c coloring number
c Color = 3 specified partitions = 3
c p edge 175 417
c cnf created by edge2cnf
p cnf 525 1951
-1 -2 0
-1 -3 0
-2 -3 0
1 2 3 0
-4 -5 0
-4 -6 0
-5 -6 0
4 5 6 0
-7 -8 0
-7 -9 0
-8 -9 0
7 8 9 0
-10 -11 0
-10 -12 0
-11 -12 0
10 11 12 0
-13 -14 0
-13 -15 0
-14 -15 0
13 14 15 0
-16 -17 0
-16 -18 0
-17 -18 0
16 17 18 0
-19 -20 0
-19 -21 0
-20 -21 0
19 20 21 0
-22 -23 0
-22 -24 0
-23 -24 0
22 23 24 0
-25 -26 0
-25 -27 0
-26 -27 0
25 26 27 0
-28 -29 0
-28 -30 0
-29 -30 0
28 29 30 0
-31 -32 0
-31 -33 0
-32 -33 0
31 32 33 0
-34 -35 0
-34 -36 0
-35 -36 0
34 35 36 0
-37 -38 0
-37 -39 0
-38 -39 0
37 38 39 0
-40 -41 0
-40 -42 0
-41 -42 0
40 41 42 0
-43 -44 0
-43 -45 0
-44 -45 0
43 44 45 0
-46 -47 0
-46 -48 0
-47 -48 0
46 47 48 0
-49 -50 0
-49 -51 0
-50 -51 0
49 50 51 0
-52 -53 0
-52 -54 0
-53 -54 0
52 53 54 0
-55 -56 0
-55 -57 0
-56 -57 0
55 56 57 0
-58 -59 0
-58 -60 0
-59 -60 0
58 59 60 0
-61 -62 0
-61 -63 0
-62 -63 0
61 62 63 0
-64 -65 0
-64 -66 0
-65 -66 0
64 65 66 0
-67 -68 0
-67 -69 0
-68 -69 0
67 68 69 0
-70 -71 0
-70 -72 0
-71 -72 0
70 71 72 0
-73 -74 0
-73 -75 0
-74 -75 0
73 74 75 0
-76 -77 0
-76 -78 0
-77 -78 0
76 77 78 0
-79 -80 0
-79 -81 0
-80 -81 0
79 80 81 0
-82 -83 0
-82 -84 0
-83 -84 0
82 83 84 0
-85 -86 0
-85 -87 0
-86 -87 0
85 86 87 0
-88 -89 0
-88 -90 0
-89 -90 0
88 89 90 0
-91 -92 0
-91 -93 0
-92 -93 0
91 92 93 0
-94 -95 0
-94 -96 0
-95 -96 0
94 95 96 0
-97 -98 0
-97 -99 0
-98 -99 0
97 98 99 0
-100 -101 0
-100 -102 0
-101 -102 0
100 101 102 0
-103 -104 0
-103 -105 0
-104 -105 0
103 104 105 0
-106 -107 0
-106 -108 0
-107 -108 0
106 107 108 0
-109 -110 0
-109 -111 0
-110 -111 0
109 110 111 0
-112 -113 0
-112 -114 0
-113 -114 0
112 113 114 0
-115 -116 0
-115 -117 0
-116 -117 0
115 116 117 0
-118 -119 0
-118 -120 0
-119 -120 0
118 119 120 0
-121 -122 0
-121 -123 0
-122 -123 0
121 122 123 0
-124 -125 0
-124 -126 0
-125 -126 0
124 125 126 0
-127 -128 0
-127 -129 0
-128 -129 0
127 128 129 0
-130 -131 0
-130 -132 0
-131 -132 0
130 131 132 0
-133 -134 0
-133 -135 0
-134 -135 0
133 134 135 0
-136 -137 0
-136 -138 0
-137 -138 0
136 137 138 0
-139 -140 0
-139 -141 0
-140 -141 0
139 140 141 0
-142 -143 0
-142 -144 0
-143 -144 0
142 143 144 0
-145 -146 0
-145 -147 0
-146 -147 0
145 146 147 0
-148 -149 0
-148 -150 0
-149 -150 0
148 149 150 0
-151 -152 0
-151 -153 0
-152 -153 0
151 152 153 0
-154 -155 0
-154 -156 0
-155 -156 0
154 155 156 0
-157 -158 0
-157 -159 0
-158 -159 0
157 158 159 0
-160 -161 0
-160 -162 0
-161 -162 0
160 161 162 0
-163 -164 0
-163 -165 0
-164 -165 0
163 164 165 0
-166 -167 0
-166 -168 0
-167 -168 0
166 167 168 0
-169 -170 0
-169 -171 0
-170 -171 0
169 170 171 0
-172 -173 0
-172 -174 0
-173 -174 0
172 173 174 0
-175 -176 0
-175 -177 0
-176 -177 0
175 176 177 0
-178 -179 0
-178 -180 0
-179 -180 0
178 179 180 0
-181 -182 0
-181 -183 0
-182 -183 0
181 182 183 0
-184 -185 0
-184 -186 0
-185 -186 0
184 185 186 0
-187 -188 0
-187 -189 0
-188 -189 0
187 188 189 0
-190 -191 0
-190 -192 0
-191 -192 0
190 191 192 0
-193 -194 0
-193 -195 0
-194 -195 0
193 194 195 0
-196 -197 0
-196 -198 0
-197 -198 0
196 197 198 0
-199 -200 0
-199 -201 0
-200 -201 0
199 200 201 0
-202 -203 0
-202 -204 0
-203 -204 0
202 203 204 0
-205 -206 0
-205 -207 0
-206 -207 0
205 206 207 0
-208 -209 0
-208 -210 0
-209 -210 0
208 209 210 0
-211 -212 0
-211 -213 0
-212 -213 0
211 212 213 0
-214 -215 0
-214 -216 0
-215 -216 0
214 215 216 0
-217 -218 0
-217 -219 0
-218 -219 0
217 218 219 0
-220 -221 0
-220 -222 0
-221 -222 0
220 221 222 0
-223 -224 0
-223 -225 0
-224 -225 0
223 224 225 0
-226 -227 0
-226 -228 0
-227 -228 0
226 227 228 0
-229 -230 0
-229 -231 0
-230 -231 0
229 230 231 0
-232 -233 0
-232 -234 0
-233 -234 0
232 233 234 0
-235 -236 0
-235 -237 0
-236 -237 0
235 236 237 0
-238 -239 0
-238 -240 0
-239 -240 0
238 239 240 0
-241 -242 0
-241 -243 0
-242 -243 0
241 242 243 0
-244 -245 0
-244 -246 0
-245 -246 0
244 245 246 0
-247 -248 0
-247 -249 0
-248 -249 0
247 248 249 0
-250 -251 0
-250 -252 0
-251 -252 0
250 251 252 0
-253 -254 0
-253 -255 0
-254 -255 0
253 254 255 0
-256 -257 0
-256 -258 0
-257 -258 0
256 257 258 0
-259 -260 0
-259 -261 0
-260 -261 0
259 260 261 0
-262 -263 0
-262 -264 0
-263 -264 0
262 263 264 0
-265 -266 0
-265 -267 0
-266 -267 0
265 266 267 0
-268 -269 0
-268 -270 0
-269 -270 0
268 269 270 0
-271 -272 0
-271 -273 0
-272 -273 0
271 272 273 0
-274 -275 0
-274 -276 0
-275 -276 0
274 275 276 0
-277 -278 0
-277 -279 0
-278 -279 0
277 278 279 0
-280 -281 0
-280 -282 0
-281 -282 0
280 281 282 0
-283 -284 0
-283 -285 0
-284 -285 0
283 284 285 0
-286 -287 0
-286 -288 0
-287 -288 0
286 287 288 0
-289 -290 0
-289 -291 0
-290 -291 0
289 290 291 0
-292 -293 0
-292 -294 0
-293 -294 0
292 293 294 0
-295 -296 0
-295 -297 0
-296 -297 0
295 296 297 0
-298 -299 0
-298 -300 0
-299 -300 0
298 299 300 0
-301 -302 0
-301 -303 0
-302 -303 0
301 302 303 0
-304 -305 0
-304 -306 0
-305 -306 0
304 305 306 0
-307 -308 0
-307 -309 0
-308 -309 0
307 308 309 0
-310 -311 0
-310 -312 0
-311 -312 0
310 311 312 0
-313 -314 0
-313 -315 0
-314 -315 0
313 314 315 0
-316 -317 0
-316 -318 0
-317 -318 0
316 317 318 0
-319 -320 0
-319 -321 0
-320 -321 0
319 320 321 0
-322 -323 0
-322 -324 0
-323 -324 0
322 323 324 0
-325 -326 0
-325 -327 0
-326 -327 0
325 326 327 0
-328 -329 0
-328 -330 0
-329 -330 0
328 329 330 0
-331 -332 0
-331 -333 0
-332 -333 0
331 332 333 0
-334 -335 0
-334 -336 0
-335 -336 0
334 335 336 0
-337 -338 0
-337 -339 0
-338 -339 0
337 338 339 0
-340 -341 0
-340 -342 0
-341 -342 0
340 341 342 0
-343 -344 0
-343 -345 0
-344 -345 0
343 344 345 0
-346 -347 0
-346 -348 0
-347 -348 0
346 347 348 0
-349 -350 0
-349 -351 0
-350 -351 0
349 350 351 0
-352 -353 0
-352 -354 0
-353 -354 0
352 353 354 0
-355 -356 0
-355 -357 0
-356 -357 0
355 356 357 0
-358 -359 0
-358 -360 0
-359 -360 0
358 359 360 0
-361 -362 0
-361 -363 0
-362 -363 0
361 362 363 0
-364 -365 0
-364 -366 0
-365 -366 0
364 365 366 0
-367 -368 0
-367 -369 0
-368 -369 0
367 368 369 0
-370 -371 0
-370 -372 0
-371 -372 0
370 371 372 0
-373 -374 0
-373 -375 0
-374 -375 0
373 374 375 0
-376 -377 0
-376 -378 0
-377 -378 0
376 377 378 0
-379 -380 0
-379 -381 0
-380 -381 0
379 380 381 0
-382 -383 0
-382 -384 0
-383 -384 0
382 383 384 0
-385 -386 0
-385 -387 0
-386 -387 0
385 386 387 0
-388 -389 0
-388 -390 0
-389 -390 0
388 389 390 0
-391 -392 0
-391 -393 0
-392 -393 0
391 392 393 0
-394 -395 0
-394 -396 0
-395 -396 0
394 395 396 0
-397 -398 0
-397 -399 0
-398 -399 0
397 398 399 0
-400 -401 0
-400 -402 0
-401 -402 0
400 401 402 0
-403 -404 0
-403 -405 0
-404 -405 0
403 404 405 0
-406 -407 0
-406 -408 0
-407 -408 0
406 407 408 0
-409 -410 0
-409 -411 0
-410 -411 0
409 410 411 0
-412 -413 0
-412 -414 0
-413 -414 0
412 413 414 0
-415 -416 0
-415 -417 0
-416 -417 0
415 416 417 0
-418 -419 0
-418 -420 0
-419 -420 0
418 419 420 0
-421 -422 0
-421 -423 0
-422 -423 0
421 422 423 0
-424 -425 0
-424 -426 0
-425 -426 0
424 425 426 0
-427 -428 0
-427 -429 0
-428 -429 0
427 428 429 0
-430 -431 0
-430 -432 0
-431 -432 0
430 431 432 0
-433 -434 0
-433 -435 0
-434 -435 0
433 434 435 0
-436 -437 0
-436 -438 0
-437 -438 0
436 437 438 0
-439 -440 0
-439 -441 0
-440 -441 0
439 440 441 0
-442 -443 0
-442 -444 0
-443 -444 0
442 443 444 0
-445 -446 0
-445 -447 0
-446 -447 0
445 446 447 0
-448 -449 0
-448 -450 0
-449 -450 0
448 449 450 0
-451 -452 0
-451 -453 0
-452 -453 0
451 452 453 0
-454 -455 0
-454 -456 0
-455 -456 0
454 455 456 0
-457 -458 0
-457 -459 0
-458 -459 0
457 458 459 0
-460 -461 0
-460 -462 0
-461 -462 0
460 461 462 0
-463 -464 0
-463 -465 0
-464 -465 0
463 464 465 0
-466 -467 0
-466 -468 0
-467 -468 0
466 467 468 0
-469 -470 0
-469 -471 0
-470 -471 0
469 470 471 0
-472 -473 0
-472 -474 0
-473 -474 0
472 473 474 0
-475 -476 0
-475 -477 0
-476 -477 0
475 476 477 0
-478 -479 0
-478 -480 0
-479 -480 0
478 479 480 0
-481 -482 0
-481 -483 0
-482 -483 0
481 482 483 0
-484 -485 0
-484 -486 0
-485 -486 0
484 485 486 0
-487 -488 0
-487 -489 0
-488 -489 0
487 488 489 0
-490 -491 0
-490 -492 0
-491 -492 0
490 491 492 0
-493 -494 0
-493 -495 0
-494 -495 0
493 494 495 0
-496 -497 0
-496 -498 0
-497 -498 0
496 497 498 0
-499 -500 0
-499 -501 0
-500 -501 0
499 500 501 0
-502 -503 0
-502 -504 0
-503 -504 0
502 503 504 0
-505 -506 0
-505 -507 0
-506 -507 0
505 506 507 0
-508 -509 0
-508 -510 0
-509 -510 0
508 509 510 0
-511 -512 0
-511 -513 0
-512 -513 0
511 512 513 0
-514 -515 0
-514 -516 0
-515 -516 0
514 515 516 0
-517 -518 0
-517 -519 0
-518 -519 0
517 518 519 0
-520 -521 0
-520 -522 0
-521 -522 0
520 521 522 0
-523 -524 0
-523 -525 0
-524 -525 0
523 524 525 0
-58 -1 0
-59 -2 0
-60 -3 0
-94 -1 0
-95 -2 0
-96 -3 0
-112 -1 0
-113 -2 0
-114 -3 0
-334 -1 0
-335 -2 0
-336 -3 0
-388 -1 0
-389 -2 0
-390 -3 0
-454 -1 0
-455 -2 0
-456 -3 0
-466 -1 0
-467 -2 0
-468 -3 0
-136 -4 0
-137 -5 0
-138 -6 0
-187 -4 0
-188 -5 0
-189 -6 0
-337 -4 0
-338 -5 0
-339 -6 0
-352 -4 0
-353 -5 0
-354 -6 0
-403 -4 0
-404 -5 0
-405 -6 0
-517 -4 0
-518 -5 0
-519 -6 0
-52 -7 0
-53 -8 0
-54 -9 0
-61 -7 0
-62 -8 0
-63 -9 0
-124 -7 0
-125 -8 0
-126 -9 0
-388 -7 0
-389 -8 0
-390 -9 0
-76 -10 0
-77 -11 0
-78 -12 0
-259 -10 0
-260 -11 0
-261 -12 0
-334 -10 0
-335 -11 0
-336 -12 0
-502 -10 0
-503 -11 0
-504 -12 0
-16 -13 0
-17 -14 0
-18 -15 0
-31 -13 0
-32 -14 0
-33 -15 0
-91 -13 0
-92 -14 0
-93 -15 0
-139 -13 0
-140 -14 0
-141 -15 0
-178 -13 0
-179 -14 0
-180 -15 0
-115 -16 0
-116 -17 0
-117 -18 0
-208 -16 0
-209 -17 0
-210 -18 0
-334 -16 0
-335 -17 0
-336 -18 0
-508 -16 0
-509 -17 0
-510 -18 0
-283 -19 0
-284 -20 0
-285 -21 0
-301 -19 0
-302 -20 0
-303 -21 0
-304 -19 0
-305 -20 0
-306 -21 0
-355 -19 0
-356 -20 0
-357 -21 0
-367 -19 0
-368 -20 0
-369 -21 0
-376 -19 0
-377 -20 0
-378 -21 0
-91 -22 0
-92 -23 0
-93 -24 0
-100 -22 0
-101 -23 0
-102 -24 0
-109 -22 0
-110 -23 0
-111 -24 0
-130 -22 0
-131 -23 0
-132 -24 0
-391 -22 0
-392 -23 0
-393 -24 0
-478 -22 0
-479 -23 0
-480 -24 0
-496 -22 0
-497 -23 0
-498 -24 0
-46 -25 0
-47 -26 0
-48 -27 0
-79 -25 0
-80 -26 0
-81 -27 0
-91 -25 0
-92 -26 0
-93 -27 0
-106 -25 0
-107 -26 0
-108 -27 0
-205 -25 0
-206 -26 0
-207 -27 0
-250 -25 0
-251 -26 0
-252 -27 0
-274 -25 0
-275 -26 0
-276 -27 0
-394 -25 0
-395 -26 0
-396 -27 0
-112 -28 0
-113 -29 0
-114 -30 0
-235 -28 0
-236 -29 0
-237 -30 0
-457 -28 0
-458 -29 0
-459 -30 0
-43 -31 0
-44 -32 0
-45 -33 0
-148 -31 0
-149 -32 0
-150 -33 0
-337 -31 0
-338 -32 0
-339 -33 0
-364 -31 0
-365 -32 0
-366 -33 0
-76 -34 0
-77 -35 0
-78 -36 0
-88 -34 0
-89 -35 0
-90 -36 0
-109 -34 0
-110 -35 0
-111 -36 0
-280 -34 0
-281 -35 0
-282 -36 0
-283 -34 0
-284 -35 0
-285 -36 0
-427 -34 0
-428 -35 0
-429 -36 0
-85 -37 0
-86 -38 0
-87 -39 0
-190 -37 0
-191 -38 0
-192 -39 0
-169 -40 0
-170 -41 0
-171 -42 0
-241 -40 0
-242 -41 0
-243 -42 0
-343 -40 0
-344 -41 0
-345 -42 0
-121 -43 0
-122 -44 0
-123 -45 0
-124 -43 0
-125 -44 0
-126 -45 0
-265 -43 0
-266 -44 0
-267 -45 0
-355 -43 0
-356 -44 0
-357 -45 0
-460 -43 0
-461 -44 0
-462 -45 0
-478 -43 0
-479 -44 0
-480 -45 0
-499 -43 0
-500 -44 0
-501 -45 0
-49 -46 0
-50 -47 0
-51 -48 0
-64 -46 0
-65 -47 0
-66 -48 0
-130 -46 0
-131 -47 0
-132 -48 0
-187 -46 0
-188 -47 0
-189 -48 0
-205 -46 0
-206 -47 0
-207 -48 0
-274 -46 0
-275 -47 0
-276 -48 0
-109 -49 0
-110 -50 0
-111 -51 0
-160 -49 0
-161 -50 0
-162 -51 0
-277 -49 0
-278 -50 0
-279 -51 0
-337 -52 0
-338 -53 0
-339 -54 0
-409 -52 0
-410 -53 0
-411 -54 0
-421 -52 0
-422 -53 0
-423 -54 0
-490 -52 0
-491 -53 0
-492 -54 0
-154 -55 0
-155 -56 0
-156 -57 0
-211 -55 0
-212 -56 0
-213 -57 0
-352 -55 0
-353 -56 0
-354 -57 0
-403 -55 0
-404 -56 0
-405 -57 0
-337 -58 0
-338 -59 0
-339 -60 0
-505 -58 0
-506 -59 0
-507 -60 0
-91 -61 0
-92 -62 0
-93 -63 0
-163 -61 0
-164 -62 0
-165 -63 0
-307 -61 0
-308 -62 0
-309 -63 0
-430 -61 0
-431 -62 0
-432 -63 0
-490 -61 0
-491 -62 0
-492 -63 0
-493 -61 0
-494 -62 0
-495 -63 0
-115 -64 0
-116 -65 0
-117 -66 0
-136 -64 0
-137 -65 0
-138 -66 0
-142 -64 0
-143 -65 0
-144 -66 0
-367 -64 0
-368 -65 0
-369 -66 0
-499 -64 0
-500 -65 0
-501 -66 0
-304 -67 0
-305 -68 0
-306 -69 0
-397 -67 0
-398 -68 0
-399 -69 0
-523 -67 0
-524 -68 0
-525 -69 0
-79 -70 0
-80 -71 0
-81 -72 0
-235 -70 0
-236 -71 0
-237 -72 0
-292 -70 0
-293 -71 0
-294 -72 0
-394 -70 0
-395 -71 0
-396 -72 0
-514 -70 0
-515 -71 0
-516 -72 0
-121 -73 0
-122 -74 0
-123 -75 0
-142 -73 0
-143 -74 0
-144 -75 0
-160 -73 0
-161 -74 0
-162 -75 0
-247 -73 0
-248 -74 0
-249 -75 0
-253 -73 0
-254 -74 0
-255 -75 0
-325 -73 0
-326 -74 0
-327 -75 0
-502 -73 0
-503 -74 0
-504 -75 0
-220 -76 0
-221 -77 0
-222 -78 0
-223 -76 0
-224 -77 0
-225 -78 0
-517 -76 0
-518 -77 0
-519 -78 0
-202 -79 0
-203 -80 0
-204 -81 0
-328 -79 0
-329 -80 0
-330 -81 0
-331 -79 0
-332 -80 0
-333 -81 0
-502 -79 0
-503 -80 0
-504 -81 0
-508 -79 0
-509 -80 0
-510 -81 0
-190 -82 0
-191 -83 0
-192 -84 0
-367 -82 0
-368 -83 0
-369 -84 0
-202 -85 0
-203 -86 0
-204 -87 0
-514 -85 0
-515 -86 0
-516 -87 0
-133 -88 0
-134 -89 0
-135 -90 0
-238 -88 0
-239 -89 0
-240 -90 0
-499 -88 0
-500 -89 0
-501 -90 0
-238 -91 0
-239 -92 0
-240 -93 0
-277 -91 0
-278 -92 0
-279 -93 0
-100 -94 0
-101 -95 0
-102 -96 0
-325 -94 0
-326 -95 0
-327 -96 0
-391 -94 0
-392 -95 0
-393 -96 0
-415 -94 0
-416 -95 0
-417 -96 0
-496 -94 0
-497 -95 0
-498 -96 0
-517 -94 0
-518 -95 0
-519 -96 0
-127 -97 0
-128 -98 0
-129 -99 0
-175 -97 0
-176 -98 0
-177 -99 0
-439 -97 0
-440 -98 0
-441 -99 0
-451 -97 0
-452 -98 0
-453 -99 0
-106 -100 0
-107 -101 0
-108 -102 0
-109 -100 0
-110 -101 0
-111 -102 0
-292 -100 0
-293 -101 0
-294 -102 0
-475 -100 0
-476 -101 0
-477 -102 0
-247 -103 0
-248 -104 0
-249 -105 0
-421 -103 0
-422 -104 0
-423 -105 0
-517 -103 0
-518 -104 0
-519 -105 0
-112 -106 0
-113 -107 0
-114 -108 0
-439 -106 0
-440 -107 0
-441 -108 0
-496 -106 0
-497 -107 0
-498 -108 0
-262 -109 0
-263 -110 0
-264 -111 0
-268 -109 0
-269 -110 0
-270 -111 0
-121 -112 0
-122 -113 0
-123 -114 0
-196 -112 0
-197 -113 0
-198 -114 0
-217 -112 0
-218 -113 0
-219 -114 0
-253 -112 0
-254 -113 0
-255 -114 0
-397 -112 0
-398 -113 0
-399 -114 0
-163 -115 0
-164 -116 0
-165 -117 0
-304 -115 0
-305 -116 0
-306 -117 0
-160 -118 0
-161 -119 0
-162 -120 0
-226 -118 0
-227 -119 0
-228 -120 0
-298 -118 0
-299 -119 0
-300 -120 0
-448 -118 0
-449 -119 0
-450 -120 0
-196 -121 0
-197 -122 0
-198 -123 0
-205 -121 0
-206 -122 0
-207 -123 0
-313 -121 0
-314 -122 0
-315 -123 0
-403 -121 0
-404 -122 0
-405 -123 0
-259 -124 0
-260 -125 0
-261 -126 0
-370 -124 0
-371 -125 0
-372 -126 0
-466 -124 0
-467 -125 0
-468 -126 0
-154 -127 0
-155 -128 0
-156 -129 0
-265 -127 0
-266 -128 0
-267 -129 0
-418 -127 0
-419 -128 0
-420 -129 0
-238 -130 0
-239 -131 0
-240 -132 0
-331 -130 0
-332 -131 0
-333 -132 0
-355 -130 0
-356 -131 0
-357 -132 0
-382 -130 0
-383 -131 0
-384 -132 0
-517 -130 0
-518 -131 0
-519 -132 0
-151 -133 0
-152 -134 0
-153 -135 0
-322 -133 0
-323 -134 0
-324 -135 0
-448 -133 0
-449 -134 0
-450 -135 0
-472 -133 0
-473 -134 0
-474 -135 0
-346 -136 0
-347 -137 0
-348 -138 0
-445 -136 0
-446 -137 0
-447 -138 0
-463 -136 0
-464 -137 0
-465 -138 0
-208 -139 0
-209 -140 0
-210 -141 0
-247 -139 0
-248 -140 0
-249 -141 0
-289 -139 0
-290 -140 0
-291 -141 0
-382 -139 0
-383 -140 0
-384 -141 0
-187 -142 0
-188 -143 0
-189 -144 0
-355 -142 0
-356 -143 0
-357 -144 0
-370 -142 0
-371 -143 0
-372 -144 0
-280 -145 0
-281 -146 0
-282 -147 0
-349 -145 0
-350 -146 0
-351 -147 0
-505 -145 0
-506 -146 0
-507 -147 0
-202 -148 0
-203 -149 0
-204 -150 0
-166 -151 0
-167 -152 0
-168 -153 0
-340 -151 0
-341 -152 0
-342 -153 0
-382 -151 0
-383 -152 0
-384 -153 0
-247 -154 0
-248 -155 0
-249 -156 0
-277 -154 0
-278 -155 0
-279 -156 0
-310 -154 0
-311 -155 0
-312 -156 0
-169 -157 0
-170 -158 0
-171 -159 0
-304 -157 0
-305 -158 0
-306 -159 0
-352 -157 0
-353 -158 0
-354 -159 0
-385 -157 0
-386 -158 0
-387 -159 0
-217 -160 0
-218 -161 0
-219 -162 0
-508 -160 0
-509 -161 0
-510 -162 0
-313 -163 0
-314 -164 0
-315 -165 0
-355 -163 0
-356 -164 0
-357 -165 0
-361 -163 0
-362 -164 0
-363 -165 0
-379 -163 0
-380 -164 0
-381 -165 0
-448 -163 0
-449 -164 0
-450 -165 0
-235 -166 0
-236 -167 0
-237 -168 0
-241 -166 0
-242 -167 0
-243 -168 0
-250 -166 0
-251 -167 0
-252 -168 0
-331 -166 0
-332 -167 0
-333 -168 0
-403 -166 0
-404 -167 0
-405 -168 0
-469 -166 0
-470 -167 0
-471 -168 0
-199 -169 0
-200 -170 0
-201 -171 0
-394 -169 0
-395 -170 0
-396 -171 0
-283 -172 0
-284 -173 0
-285 -174 0
-340 -172 0
-341 -173 0
-342 -174 0
-349 -172 0
-350 -173 0
-351 -174 0
-178 -175 0
-179 -176 0
-180 -177 0
-217 -175 0
-218 -176 0
-219 -177 0
-286 -175 0
-287 -176 0
-288 -177 0
-292 -175 0
-293 -176 0
-294 -177 0
-421 -175 0
-422 -176 0
-423 -177 0
-199 -178 0
-200 -179 0
-201 -180 0
-301 -178 0
-302 -179 0
-303 -180 0
-514 -178 0
-515 -179 0
-516 -180 0
-229 -181 0
-230 -182 0
-231 -183 0
-301 -181 0
-302 -182 0
-303 -183 0
-334 -181 0
-335 -182 0
-336 -183 0
-358 -181 0
-359 -182 0
-360 -183 0
-406 -181 0
-407 -182 0
-408 -183 0
-409 -181 0
-410 -182 0
-411 -183 0
-445 -181 0
-446 -182 0
-447 -183 0
-190 -184 0
-191 -185 0
-192 -186 0
-322 -184 0
-323 -185 0
-324 -186 0
-454 -184 0
-455 -185 0
-456 -186 0
-349 -187 0
-350 -188 0
-351 -189 0
-451 -187 0
-452 -188 0
-453 -189 0
-208 -190 0
-209 -191 0
-210 -192 0
-487 -190 0
-488 -191 0
-489 -192 0
-229 -193 0
-230 -194 0
-231 -195 0
-256 -193 0
-257 -194 0
-258 -195 0
-307 -193 0
-308 -194 0
-309 -195 0
-508 -193 0
-509 -194 0
-510 -195 0
-517 -193 0
-518 -194 0
-519 -195 0
-223 -196 0
-224 -197 0
-225 -198 0
-235 -196 0
-236 -197 0
-237 -198 0
-253 -196 0
-254 -197 0
-255 -198 0
-247 -202 0
-248 -203 0
-249 -204 0
-361 -202 0
-362 -203 0
-363 -204 0
-244 -205 0
-245 -206 0
-246 -207 0
-307 -205 0
-308 -206 0
-309 -207 0
-511 -205 0
-512 -206 0
-513 -207 0
-301 -208 0
-302 -209 0
-303 -210 0
-424 -208 0
-425 -209 0
-426 -210 0
-235 -211 0
-236 -212 0
-237 -213 0
-328 -211 0
-329 -212 0
-330 -213 0
-358 -211 0
-359 -212 0
-360 -213 0
-388 -211 0
-389 -212 0
-390 -213 0
-397 -211 0
-398 -212 0
-399 -213 0
-226 -214 0
-227 -215 0
-228 -216 0
-265 -214 0
-266 -215 0
-267 -216 0
-487 -214 0
-488 -215 0
-489 -216 0
-505 -217 0
-506 -218 0
-507 -219 0
-223 -220 0
-224 -221 0
-225 -222 0
-229 -220 0
-230 -221 0
-231 -222 0
-268 -220 0
-269 -221 0
-270 -222 0
-463 -220 0
-464 -221 0
-465 -222 0
-385 -223 0
-386 -224 0
-387 -225 0
-433 -223 0
-434 -224 0
-435 -225 0
-241 -226 0
-242 -227 0
-243 -228 0
-259 -226 0
-260 -227 0
-261 -228 0
-400 -226 0
-401 -227 0
-402 -228 0
-346 -229 0
-347 -230 0
-348 -231 0
-460 -229 0
-461 -230 0
-462 -231 0
-325 -241 0
-326 -242 0
-327 -243 0
-388 -244 0
-389 -245 0
-390 -246 0
-430 -244 0
-431 -245 0
-432 -246 0
-316 -250 0
-317 -251 0
-318 -252 0
-499 -250 0
-500 -251 0
-501 -252 0
-322 -253 0
-323 -254 0
-324 -255 0
-331 -253 0
-332 -254 0
-333 -255 0
-430 -253 0
-431 -254 0
-432 -255 0
-466 -256 0
-467 -257 0
-468 -258 0
-478 -256 0
-479 -257 0
-480 -258 0
-520 -256 0
-521 -257 0
-522 -258 0
-322 -259 0
-323 -260 0
-324 -261 0
-349 -259 0
-350 -260 0
-351 -261 0
-463 -259 0
-464 -260 0
-465 -261 0
-301 -262 0
-302 -263 0
-303 -264 0
-340 -262 0
-341 -263 0
-342 -264 0
-364 -262 0
-365 -263 0
-366 -264 0
-409 -265 0
-410 -266 0
-411 -267 0
-292 -268 0
-293 -269 0
-294 -270 0
-313 -268 0
-314 -269 0
-315 -270 0
-391 -268 0
-392 -269 0
-393 -270 0
-421 -268 0
-422 -269 0
-423 -270 0
-472 -268 0
-473 -269 0
-474 -270 0
-358 -271 0
-359 -272 0
-360 -273 0
-277 -274 0
-278 -275 0
-279 -276 0
-316 -274 0
-317 -275 0
-318 -276 0
-322 -274 0
-323 -275 0
-324 -276 0
-373 -274 0
-374 -275 0
-375 -276 0
-517 -274 0
-518 -275 0
-519 -276 0
-409 -277 0
-410 -278 0
-411 -279 0
-340 -280 0
-341 -281 0
-342 -282 0
-355 -280 0
-356 -281 0
-357 -282 0
-370 -280 0
-371 -281 0
-372 -282 0
-436 -280 0
-437 -281 0
-438 -282 0
-457 -280 0
-458 -281 0
-459 -282 0
-505 -280 0
-506 -281 0
-507 -282 0
-322 -283 0
-323 -284 0
-324 -285 0
-457 -283 0
-458 -284 0
-459 -285 0
-295 -286 0
-296 -287 0
-297 -288 0
-523 -286 0
-524 -287 0
-525 -288 0
-337 -289 0
-338 -290 0
-339 -291 0
-385 -289 0
-386 -290 0
-387 -291 0
-340 -292 0
-341 -293 0
-342 -294 0
-352 -292 0
-353 -293 0
-354 -294 0
-367 -292 0
-368 -293 0
-369 -294 0
-478 -292 0
-479 -293 0
-480 -294 0
-340 -295 0
-341 -296 0
-342 -297 0
-346 -295 0
-347 -296 0
-348 -297 0
-448 -295 0
-449 -296 0
-450 -297 0
-499 -295 0
-500 -296 0
-501 -297 0
-361 -298 0
-362 -299 0
-363 -300 0
-322 -301 0
-323 -302 0
-324 -303 0
-394 -301 0
-395 -302 0
-396 -303 0
-394 -304 0
-395 -305 0
-396 -306 0
-400 -307 0
-401 -308 0
-402 -309 0
-382 -313 0
-383 -314 0
-384 -315 0
-412 -313 0
-413 -314 0
-414 -315 0
-469 -313 0
-470 -314 0
-471 -315 0
-421 -316 0
-422 -317 0
-423 -318 0
-493 -319 0
-494 -320 0
-495 -321 0
-499 -319 0
-500 -320 0
-501 -321 0
-355 -322 0
-356 -323 0
-357 -324 0
-334 -325 0
-335 -326 0
-336 -327 0
-466 -325 0
-467 -326 0
-468 -327 0
-385 -331 0
-386 -332 0
-387 -333 0
-427 -331 0
-428 -332 0
-429 -333 0
-385 -334 0
-386 -335 0
-387 -336 0
-454 -334 0
-455 -335 0
-456 -336 0
-379 -337 0
-380 -338 0
-381 -339 0
-430 -337 0
-431 -338 0
-432 -339 0
-436 -340 0
-437 -341 0
-438 -342 0
-391 -343 0
-392 -344 0
-393 -345 0
-415 -343 0
-416 -344 0
-417 -345 0
-505 -343 0
-506 -344 0
-507 -345 0
-391 -346 0
-392 -347 0
-393 -348 0
-397 -346 0
-398 -347 0
-399 -348 0
-463 -346 0
-464 -347 0
-465 -348 0
-481 -346 0
-482 -347 0
-483 -348 0
-466 -349 0
-467 -350 0
-468 -351 0
-511 -349 0
-512 -350 0
-513 -351 0
-478 -352 0
-479 -353 0
-480 -354 0
-505 -352 0
-506 -353 0
-507 -354 0
-385 -358 0
-386 -359 0
-387 -360 0
-376 -361 0
-377 -362 0
-378 -363 0
-502 -361 0
-503 -362 0
-504 -363 0
-397 -364 0
-398 -365 0
-399 -366 0
-400 -364 0
-401 -365 0
-402 -366 0
-511 -364 0
-512 -365 0
-513 -366 0
-379 -367 0
-380 -368 0
-381 -369 0
-433 -370 0
-434 -371 0
-435 -372 0
-484 -376 0
-485 -377 0
-486 -378 0
-418 -379 0
-419 -380 0
-420 -381 0
-424 -379 0
-425 -380 0
-426 -381 0
-469 -379 0
-470 -380 0
-471 -381 0
-520 -379 0
-521 -380 0
-522 -381 0
-454 -382 0
-455 -383 0
-456 -384 0
-502 -382 0
-503 -383 0
-504 -384 0
-514 -388 0
-515 -389 0
-516 -390 0
-511 -391 0
-512 -392 0
-513 -393 0
-409 -394 0
-410 -395 0
-411 -396 0
-478 -397 0
-479 -398 0
-480 -399 0
-481 -400 0
-482 -401 0
-483 -402 0
-502 -403 0
-503 -404 0
-504 -405 0
-463 -406 0
-464 -407 0
-465 -408 0
-514 -406 0
-515 -407 0
-516 -408 0
-436 -418 0
-437 -419 0
-438 -420 0
-502 -418 0
-503 -419 0
-504 -420 0
-508 -424 0
-509 -425 0
-510 -426 0
-472 -427 0
-473 -428 0
-474 -429 0
-490 -427 0
-491 -428 0
-492 -429 0
-460 -433 0
-461 -434 0
-462 -435 0
-493 -433 0
-494 -434 0
-495 -435 0
-487 -445 0
-488 -446 0
-489 -447 0
-493 -445 0
-494 -446 0
-495 -447 0
-499 -445 0
-500 -446 0
-501 -447 0
-487 -448 0
-488 -449 0
-489 -450 0
-460 -451 0
-461 -452 0
-462 -453 0
-457 -454 0
-458 -455 0
-459 -456 0
-478 -466 0
-479 -467 0
-480 -468 0
-475 -469 0
-476 -470 0
-477 -471 0
-478 -469 0
-479 -470 0
-480 -471 0
-499 -469 0
-500 -470 0
-501 -471 0
-481 -475 0
-482 -476 0
-483 -477 0
-487 -475 0
-488 -476 0
-489 -477 0
-484 -481 0
-485 -482 0
-486 -483 0
-490 -484 0
-491 -485 0
-492 -486 0
-514 -505 0
-515 -506 0
-516 -507 0
-514 -511 0
-515 -512 0
-516 -513 0
